Version identifier: 20.1.0.0 | 2020-11-10 | 9bedb6d68
CPXPARAM_LPMethod                                3
CPXPARAM_QPMethod                                3
CPXPARAM_Threads                                 4
CPXPARAM_MIP_Strategy_StartAlgorithm             3
CPXPARAM_Emphasis_MIP                            1
CPXPARAM_MIP_Limits_Solutions                    1
CPXPARAM_TimeLimit                               43196
Tried aggregator 1 time.
MIP Presolve eliminated 798 rows and 0 columns.
Reduced MIP has 6449 rows, 496 columns, and 24028 nonzeros.
Reduced MIP has 496 binaries, 0 generals, 0 SOSs, and 0 indicators.
Presolve time = 0,04 sec. (10,64 ticks)
Probing time = 0,01 sec. (0,44 ticks)
Tried aggregator 1 time.
Detecting symmetries...
Reduced MIP has 6449 rows, 496 columns, and 24028 nonzeros.
Reduced MIP has 496 binaries, 0 generals, 0 SOSs, and 0 indicators.
Presolve time = 0,02 sec. (10,74 ticks)
Probing time = 0,00 sec. (1,00 ticks)
MIP emphasis: integer feasibility.
MIP search method: dynamic search.
Parallel mode: deterministic, using up to 4 threads.
Root relaxation solution time = 0,29 sec. (98,03 ticks)

        Nodes                                         Cuts/
   Node  Left     Objective  IInf  Best Integer    Best Bound    ItCnt     Gap

      0     0       49,0000    65                     49,0000      717         
      0     0       49,0000    42                     Cuts: 7      719         
Detecting symmetries...
      0     2       49,0000     8                     49,0000      719         
Elapsed time = 1,19 sec. (485,73 ticks, tree = 0,02 MB, solutions = 0)

Zero-half cuts applied:  6
Gomory fractional cuts applied:  1

Root node processing (before b&c):
  Real time             =    1,19 sec. (483,10 ticks)
Parallel b&c, 4 threads:
  Real time             =    0,34 sec. (110,23 ticks)
  Sync time (average)   =    0,10 sec.
  Wait time (average)   =    0,00 sec.
                          ------------
Total (root+branch&cut) =    1,53 sec. (593,34 ticks)
